n = 5; 
m = 10;
f = [12.73,10.28,7.61,1.89,1.03,9.67,6.26,7.49,10.33,2.93];
c = [5,7,1,8,11,14,8,15,11,5]; 
d = [11.93,13.31,2.17,1.86,0.94];
b = [| 3.21,1.97,9.77,4.29,-1.6,-7.04,-14.5,2.78,6.29,-4.85,
     | 5.97,4.39,4.11,7.86,5.88,1.05,6.83,2.31,4.39,12.1,
     | -12.91,3.31,9.36,5.59,-0.31,2.69,2.08,0.85,-9.48,-2.79,
     | -12.98,8.6,-14.99,6.43,11.96,4.9,5.83,14.63,-9.82,5.23,
     | 6.6,-12.53,14.62,4.98,-2.09,-7.88,4.9,-8.58,14.45,-10.61|];
